n = 38;
lu = [|434, 929
      |-1314, 702
      |-440, -288
      |1165, 1278
      |-599, 1277
      |-919, -17
      |-309, 361
      |-1327, 716
      |-1202, -913
      |-617, 1182
      |442, 1093
      |-1227, -721
      |-162, 1033
      |-979, -419
      |-851, -113
      |657, 1344
      |-1045, 699
      |-1243, 224
      |-151, -69
      |-814, -514
      |-778, -174
      |-180, 687
      |-251, 1404
      |-797, 447
      |-582, 956
      |331, 571
      |-1181, 670
      |-745, 946
      |-605, 1051
      |-1408, 953
      |-1082, 469
      |-202, 1060
      |-985, -662
      |-458, 445
      |-1038, 414
      |486, 1171
      |-86, 1102
      |-277, 412|];
